8612
26, 28, 12, 51, 11, 33, 43, 25, 4, 6, 15, 5, 48, 24, 38, 40, 39, 37, 46, 44, 34, 36, 35, 1, 22, 49, 32, 45, 19, 8, 10, 9, 41, 3, 18, 31, 21, 17, 42, 7, 2, 30, 20, 23, 50, 16, 29, 47, 14, 52, 13, 27
